100
32
19
6
27
10
1
11
15
5
5
18
7
24
12
2
25
9
17
26
11
2
2
12
1
12
3
3
1
2
11
14
10
3
1
3
1
2
19
2
3
4
2
1
1
2
1
1
1
2
1
3
3
3
18
1
2
2
3
2
3
2
2
2
1
17
1
1
4
1
5
1
3
19
1
20
17
1
2
4
1
1
1
3
4
1
2
1
1
2
3
2
2
3
3
1
4
17
1
1
1
2